305 306 304 307 303 301 302 508 507 506 516 515 514 517 522 523 521 520 519 518 495 494 524 525 526 491 492 493 490 529 530 531 489 532 533 231 230 229 228 227 189 190 191 192 193 194 195 196 184 183 185 186 188 187 178 182 179 181 180 177 176 540 538 539 537 536 535 534 488 487 486 485 484 483 482 481 480 479 478 477 476 475 474 473 472 471 470 469 468 467 466 465 464 496 497 461 462 463 571 460 459 458 457 456 455 2 3 4 1 0 5 573 572 6 7 8 9 10 11 14 15 16 17 18 570 569 568 19 20 13 12 23 22 31 32 30 29 28 25 24 21 26 27 567 566 565 564 563 562 561 560 549 548 545 546 547 544 543 541 542 107 109 108 173 174 175 171 169 170 172 110 111 112 161 113 114 115 116 117 123 122 121 120 119 118 106 105 104 103 102 100 101 551 550 559 558 34 33 36 37 38 35 40 41 39 42 43 44 45 46 555 556 557 554 553 552 99 98 96 95 97 94 93 92 91 47 48 49 54 55 56 53 52 50 51 84 85 86 82 83 57 58 59 81 80 79 61 60 63 62 78 87 90 89 88 77 76 64 75 74 73 72 71 65 66 67 68 70 69 124 125 126 127 128 129 130 131 132 133 134 135 136 137 138 139 140 141 151 150 149 152 148 147 142 143 144 146 145 158 157 153 155 156 159 160 162 168 163 167 166 164 154 165 203 204 202 201 200 199 198 197 205 206 207 208 209 210 211 212 213 214 215 216 217 223 224 222 221 220 218 219 226 225 232 233 234 235 236 528 527 512 513 511 510 509 237 240 239 238 246 247 245 244 243 242 241 248 249 250 251 252 254 253 255 256 257 300 258 259 260 261 262 299 298 265 263 264 266 267 271 268 270 269 272 273 274 275 292 291 293 294 296 295 330 331 332 333 288 289 290 276 277 278 279 282 281 280 287 286 285 284 283 334 335 336 337 338 339 340 341 344 343 342 366 367 365 368 369 370 398 397 394 395 396 371 372 373 322 323 327 328 329 326 325 324 297 321 320 319 318 317 316 314 315 374 375 376 377 378 379 380 381 392 393 391 390 389 388 387 386 385 383 384 409 408 407 399 406 405 404 400 403 402 401 360 359 358 361 362 363 364 346 345 347 348 349 350 351 415 416 414 413 352 353 354 355 357 356 412 411 410 418 417 419 420 421 422 423 424 425 382 431 426 427 428 429 430 432 433 434 435 436 437 438 454 439 443 444 445 442 446 447 448 449 450 441 440 453 452 499 500 501 498 502 503 504 505 308 309 310 311 451 312 313